sat
(
  (define-fun ProcProv2 () Int
    4)
  (define-fun C4_VM12 () Int
    0)
  (define-fun MemProv4 () Int
    15000)
  (define-fun C4_VM5 () Int
    0)
  (define-fun PriceProv11 () Int
    379)
  (define-fun MemProv7 () Int
    7500)
  (define-fun C2_VM11 () Int
    1)
  (define-fun C1_VM11 () Int
    1)
  (define-fun StorageProv10 () Int
    4000)
  (define-fun C4_VM6 () Int
    1)
  (define-fun C1_VM4 () Int
    1)
  (define-fun C1_VM10 () Int
    1)
  (define-fun C1_VM8 () Int
    1)
  (define-fun C5_VM12 () Int
    0)
  (define-fun PriceProv2 () Int
    210)
  (define-fun C4_VM9 () Int
    0)
  (define-fun C1_VM3 () Int
    1)
  (define-fun ProcProv3 () Int
    8)
  (define-fun VM5Type () Int
    186)
  (define-fun C4_VM3 () Int
    0)
  (define-fun ProcProv10 () Int
    4)
  (define-fun C2_VM5 () Int
    1)
  (define-fun C3_VM5 () Int
    0)
  (define-fun ProcProv7 () Int
    4)
  (define-fun C3_VM2 () Int
    0)
  (define-fun C1_VM2 () Int
    0)
  (define-fun ProcProv9 () Int
    4)
  (define-fun StorageProv1 () Int
    2000)
  (define-fun C5_VM3 () Int
    1)
  (define-fun C1_VM5 () Int
    1)
  (define-fun VM7Type () Int
    182)
  (define-fun ProcProv1 () Int
    8)
  (define-fun StorageProv3 () Int
    2000)
  (define-fun C4_VM8 () Int
    0)
  (define-fun C5_VM7 () Int
    0)
  (define-fun C2_VM10 () Int
    1)
  (define-fun C2_VM8 () Int
    1)
  (define-fun StorageProv12 () Int
    4000)
  (define-fun C2_VM2 () Int
    0)
  (define-fun C2_VM4 () Int
    1)
  (define-fun MemProv2 () Int
    7500)
  (define-fun PriceProv6 () Int
    210)
  (define-fun StorageProv9 () Int
    4000)
  (define-fun C4_VM4 () Int
    0)
  (define-fun PriceProv10 () Int
    379)
  (define-fun ProcProv12 () Int
    4)
  (define-fun VM1Type () Int
    136)
  (define-fun C3_VM11 () Int
    0)
  (define-fun VM2Type () Int
    182)
  (define-fun C1_VM1 () Int
    1)
  (define-fun VM9Type () Int
    186)
  (define-fun StorageProv11 () Int
    4000)
  (define-fun MemProv10 () Int
    15000)
  (define-fun VM10Type () Int
    186)
  (define-fun PriceProv8 () Int
    379)
  (define-fun C4_VM2 () Int
    1)
  (define-fun ProcProv6 () Int
    4)
  (define-fun C3_VM6 () Int
    0)
  (define-fun C5_VM2 () Int
    0)
  (define-fun C2_VM7 () Int
    0)
  (define-fun MemProv6 () Int
    7500)
  (define-fun C1_VM6 () Int
    0)
  (define-fun VM6Type () Int
    182)
  (define-fun StorageProv7 () Int
    2000)
  (define-fun StorageProv6 () Int
    2000)
  (define-fun VM3Type () Int
    136)
  (define-fun ProcProv5 () Int
    4)
  (define-fun C5_VM11 () Int
    0)
  (define-fun C4_VM10 () Int
    0)
  (define-fun StorageProv5 () Int
    4000)
  (define-fun PriceProv12 () Int
    379)
  (define-fun C5_VM10 () Int
    0)
  (define-fun C5_VM9 () Int
    0)
  (define-fun VM4Type () Int
    186)
  (define-fun MemProv11 () Int
    15000)
  (define-fun C3_VM12 () Int
    0)
  (define-fun C3_VM4 () Int
    0)
  (define-fun MemProv5 () Int
    15000)
  (define-fun C3_VM9 () Int
    0)
  (define-fun C4_VM7 () Int
    1)
  (define-fun C2_VM9 () Int
    1)
  (define-fun C1_VM7 () Int
    0)
  (define-fun PriceProv4 () Int
    379)
  (define-fun StorageProv8 () Int
    4000)
  (define-fun C3_VM8 () Int
    0)
  (define-fun VM12Type () Int
    186)
  (define-fun MemProv1 () Int
    15000)
  (define-fun C2_VM12 () Int
    1)
  (define-fun C5_VM1 () Int
    1)
  (define-fun PriceProv1 () Int
    460)
  (define-fun C3_VM1 () Int
    0)
  (define-fun MemProv8 () Int
    15000)
  (define-fun C2_VM3 () Int
    0)
  (define-fun C4_VM1 () Int
    0)
  (define-fun ProcProv8 () Int
    4)
  (define-fun MemProv12 () Int
    15000)
  (define-fun C5_VM4 () Int
    0)
  (define-fun ProcProv11 () Int
    4)
  (define-fun C5_VM5 () Int
    0)
  (define-fun C5_VM8 () Int
    0)
  (define-fun C1_VM9 () Int
    1)
  (define-fun C1_VM12 () Int
    1)
  (define-fun StorageProv2 () Int
    2000)
  (define-fun MemProv3 () Int
    15000)
  (define-fun PriceProv7 () Int
    210)
  (define-fun C3_VM3 () Int
    0)
  (define-fun VM11Type () Int
    186)
  (define-fun VM8Type () Int
    186)
  (define-fun PriceProv5 () Int
    379)
  (define-fun MemProv9 () Int
    15000)
  (define-fun C4_VM11 () Int
    0)
  (define-fun C2_VM6 () Int
    0)
  (define-fun StorageProv4 () Int
    4000)
  (define-fun C3_VM7 () Int
    0)
  (define-fun C3_VM10 () Int
    0)
  (define-fun C5_VM6 () Int
    0)
  (define-fun PriceProv9 () Int
    379)
  (define-fun PriceProv3 () Int
    460)
  (define-fun C2_VM1 () Int
    0)
  (define-fun ProcProv4 () Int
    4)
)
(objectives
 ( 3325)
 ((+ 0
   PriceProv1
   PriceProv2
   PriceProv3
   PriceProv4
   PriceProv5
   PriceProv6
   PriceProv7
   PriceProv8
   PriceProv9
   PriceProv10
   PriceProv11
   PriceProv12) 4203)
)
(:added-eqs                   22292648
 :arith-eq-adapter            60869642
 :arith-bound-propagations-lp 345633
 :arith-conflicts             257
 :arith-diseq                 73157257
 :arith-fixed-eqs             296223
 :arith-lower                 82340507
 :arith-make-feasible         11388525
 :arith-max-columns           423
 :arith-max-rows              38
 :arith-upper                 70864930
 :binary-propagations         185499023
 :bv-bit2core                 1851115
 :bv-dynamic-diseqs           74652780
 :bv-dynamic-eqs              18
 :bv->core-eq                 11727
 :conflicts                   152203
 :decisions                   39893582
 :del-clause                  119903298
 :final-checks                6739
 :max-memory                  211.34
 :maxsat-cores                3264
 :memory                      199.40
 :minimized-lits              274029
 :mk-bool-var                 58497236
 :mk-clause                   119907350
 :mk-clause-binary            26838
 :num-allocs                  157561742923938.00
 :num-checks                  12070
 :pb-conflicts                8531
 :pb-predicates               7
 :pb-propagations             421780
 :pb-resolves                 258
 :propagations                347700945
 :restarts                    408
 :rlimit-count                2687610844
 :time                        381.52
 :total-time                  381.54)
